letting n_nurses=25
letting n_days=7
letting n_shift_types=4
letting max_covers=13
letting t_covers=61
letting covers=[10,1,1,0,1,0,0,0,13,3,0,0,8,1,0,0,0,10,2,0,0,0,0,0,2,9,0,0]
letting prefes=[4,1,4,1,1,1,3,1,2,3,3,3,4,1,4,4,4,3,4,4,4,3,3,3,1,1,3,1,4,4,1,1,1,1,1,1,1,3,3,3,4,1,4,4,4,3,4,4,1,3,3,3,1,1,1,1,4,1,4,1,1,1,1,1,1,3,3,3,4,1,4,4,4,1,4,4,4,3,3,3,1,1,1,1,4,4,4,1,1,3,1,4,1,3,3,3,2,1,2,2,4,3,4,4,1,3,3,3,1,3,1,4,4,4,4,1,1,1,1,1,2,3,3,3,2,1,2,2,4,1,4,4,1,3,3,3,1,1,1,1,4,4,4,4,1,1,1,1,1,3,3,3,2,1,2,2,4,1,4,4,1,3,3,3,1,1,1,1,4,4,4,1,1,3,1,4,2,3,3,3,4,1,4,4,4,3,4,4,4,3,3,3,1,3,1,4,4,4,1,1,1,1,3,4,1,3,3,3,4,1,4,4,4,1,4,4,1,3,3,3,1,1,3,4,4,4,4,1,1,3,1,1,1,1,1,1,4,1,4,4,4,1,4,4,1,1,1,1,1,3,1,1,4,4,4,4,1,1,1,1,1,3,3,3,4,1,4,4,4,1,4,4,1,3,3,3,1,1,1,1,4,4,4,1,1,3,1,1,2,3,3,3,4,1,4,4,4,1,4,4,1,3,3,3,1,3,1,1,4,4,4,4,1,1,3,1,1,3,3,3,2,1,2,2,1,1,1,1,1,3,3,3,1,1,3,1,4,4,4,4,4,1,1,1,1,3,3,3,4,4,4,4,1,1,1,1,1,3,3,3,4,1,1,1,4,4,4,1,1,1,1,1,1,3,3,3,2,1,2,2,4,1,4,4,4,3,3,3,1,1,1,1,4,4,1,1,4,1,3,4,1,1,1,1,4,4,4,4,4,1,4,4,1,1,1,1,4,1,3,4,1,4,4,1,1,1,1,4,1,1,1,1,4,1,4,4,4,1,4,4,1,1,1,1,1,1,1,4,4,1,4,1,1,1,1,1,1,3,3,3,4,1,4,4,4,1,4,4,1,3,3,3,1,1,1,1,4,4,4,4,4,1,1,1,1,3,3,3,4,4,4,4,4,3,4,4,1,3,3,3,4,1,1,1,4,4,4,1,4,1,1,1,1,3,3,3,4,4,4,4,1,1,1,1,4,3,3,3,4,1,1,1,1,1,4,1,1,3,1,1,1,3,3,3,4,1,4,4,4,1,4,4,1,3,3,3,1,3,1,1,1,1,1,1,1,1,1,1,1,1,1,1,4,1,4,4,4,1,4,4,1,1,1,1,1,1,1,1,4,4,4,1,1,1,1,1,1,1,1,1,4,1,4,4,4,1,4,4,1,1,1,1,1,1,1,1,1,4,1,1,1,1,3,1,1,3,3,3,4,1,4,4,1,1,1,1,1,3,3,3,1,1,3,1,1,4,4,1,1,1,1,1,1,3,3,3,4,1,4,4,4,1,4,4,1,3,3,3,1,1,1,1,4,4,4,1,4,1,1,1,2,3,3,3,4,4,4,4,1,1,1,1,1,3,3,3,4,1,1,1]
letting ub =  236
